60

  0    8   19   16   20  144  161  153  160  142  163  155  162  156  159  160  159   13   14   23   23   24   24   13   11   27   15   26   25   63  126  128  122  121  128  274  281  279  277  285  278  152  169  162  155  158  158  174  157  131  145  144  137  139  139  146  131  113  122  115  
  8    0   20   21   18  138  155  147  153  135  157  149  155  150  152  153  152    5    7   15   18   16   16    7    3   21    9   19   18   68  131  132  127  126  133  275  282  280  278  286  279  144  161  154  147  150  151  166  149  126  140  139  132  134  134  142  126  106  115  107  
 19   20    0    8    7  155  173  164  170  152  174  167  173  167  170  171  169   25   25   27   39   35   32   27   20   41   28   38   37   80  142  144  138  136  145  292  299  297  296  304  296  157  172  168  159  161  164  179  161  146  159  159  152  154  154  162  145  122  129  122  
 16   21    8    0   15  158  176  168  173  156  177  170  176  170  173  174  173   26   27   32   38   37   35   28   22   42   29   40   39   74  134  136  130  128  138  288  294  292  291  299  291  162  178  173  165  167  169  184  167  147  161  160  153  155  155  162  146  126  134  127  
 20   18    7   15    0  150  167  159  164  147  169  161  167  161  165  165  163   22   21   21   36   31   26   25   17   38   25   34   33   83  145  147  141  140  147  293  300  298  296  304  297  150  166  161  152  154  157  172  154  142  155  155  148  150  149  158  141  116  123  116  
144  138  155  158  150    0   18    9   19    3   20   12   18   13   16   16   19  132  132  129  123  121  124  131  136  118  129  119  119  153  198  194  194  199  189  244  252  253  246  250  257   54   71   51   64   69   53   63   68   49   38   42   47   43   38   57   38   38   43   44  
161  155  173  176  167   18    0   12   19   21    2    6   12   13    2   10   20  149  149  146  139  138  141  148  154  134  146  135  136  165  206  202  203  208  197  238  246  248  241  244  253   65   78   58   74   79   61   68   77   53   37   41   49   44   39   55   44   56   60   61  
153  147  164  168  159    9   12    0   11   12   13    7    9    4   11    7   12  141  141  137  132  130  133  140  145  127  139  128  128  162  206  202  203  207  197  246  255  256  249  253  261   54   68   48   63   68   51   59   67   55   42   47   53   48   43   61   45   45   48   50  
160  153  170  173  164   19   19   11    0   20   20   17    8    8   20    9    1  147  147  143  138  136  138  147  151  133  145  134  134  171  217  213  213  218  208  257  265  266  259  263  271   46   59   39   55   60   42   49   58   66   53   58   64   59   54   72   56   48   47   51  
142  135  152  156  147    3   21   12   20    0   23   15   21   15   20   18   20  130  129  126  120  119  121  129  134  115  127  116  117  151  197  193  193  198  188  245  253  254  248  252  259   53   69   50   62   67   52   62   66   49   40   44   48   44   39   58   39   34   40   40  
163  157  174  177  169   20    2   13   20   23    0    8   12   14    4   11   20  151  151  148  141  140  143  150  155  136  148  137  138  167  208  204  205  210  198  238  246  248  241  244  253   65   78   58   74   79   62   68   78   54   38   42   50   45   40   56   45   57   61   63  
155  149  167  170  161   12    6    7   17   15    8    0   11    9    4    9   18  144  143  140  133  133  135  142  148  129  141  130  131  161  203  200  200  205  194  240  248  249  243  246  254   61   75   55   70   75   58   66   74   51   36   41   48   43   38   55   41   50   54   55  
162  155  173  176  167   18   12    9    8   21   12   11    0    6   13    3    9  150  149  146  140  139  141  149  154  135  147  136  137  171  214  210  211  216  205  250  258  260  253  256  265   54   66   47   63   68   50   56   66   62   48   52   59   54   49   66   52   52   53   56  
156  150  167  170  161   13   13    4    8   15   14    9    6    0   13    4    8  144  144  140  135  133  135  143  148  130  142  131  131  166  210  206  206  211  201  249  257  259  252  255  264   52   66   46   61   66   49   56   65   59   45   50   56   52   46   64   49   47   49   51  
159  152  170  173  165   16    2   11   20   20    4    4   13   13    0   11   20  147  146  144  137  136  139  146  151  132  144  133  134  163  204  200  201  206  195  237  245  247  240  243  252   65   78   58   74   79   61   69   77   51   35   40   47   42   37   54   42   54   58   60  
160  153  171  174  165   16   10    7    9   18   11    9    3    4   11    0   10  148  147  144  138  137  139  147  152  133  145  134  135  168  212  208  208  213  203  248  256  258  251  254  262   55   68   48   64   69   51   58   67   60   45   50   57   52   47   64   50   51   53   55  
159  152  169  173  163   19   20   12    1   20   20   18    9    8   20   10    0  147  146  142  138  136  138  146  151  133  144  133  134  171  217  213  213  218  208  257  266  267  260  263  272   45   58   38   54   59   41   48   58   67   53   58   64   60   54   73   57   48   46   50  
 13    5   25   26   22  132  149  141  147  130  151  144  150  144  147  148  147    0    2   12   14   11   12    3    5   16    4   14   13   68  132  133  128  127  133  272  279  278  276  283  277  139  156  149  142  145  145  161  144  121  135  134  127  129  129  137  120  100  109  102  
 14    7   25   27   21  132  149  141  147  129  151  143  149  144  146  147  146    2    0   10   15   10   10    5    5   16    5   14   13   70  134  135  130  130  135  274  281  280  277  285  279  137  154  148  140  143  144  159  143  121  135  134  127  129  129  137  120   99  108  101  
 23   15   27   32   21  129  146  137  143  126  148  140  146  140  144  144  142   12   10    0   22   13    6   15   12   21   14   16   14   80  144  145  139  139  144  281  288  287  284  292  286  131  147  142  133  136  138  153  136  122  134  134  128  129  129  138  120   95  102   95  
 23   18   39   38   36  123  139  132  138  120  141  133  140  135  137  138  138   14   15   22    0   10   18   11   19    6   10    9   10   60  124  124  120  120  124  259  266  265  263  270  264  134  152  144  138  141  140  156  141  108  122  122  114  116  117  123  108   93  103   96  
 24   16   35   37   31  121  138  130  136  119  140  133  139  133  136  137  136   11   10   13   10    0    8   10   15    8    9    4    2   70  134  135  130  130  134  268  275  274  272  279  274  128  146  139  132  135  135  151  134  111  124  124  117  119  118  127  110   89   99   91  
 24   16   32   35   26  124  141  133  138  121  143  135  141  135  139  139  138   12   10    6   18    8    0   14   14   16   12   11    9   77  141  142  137  137  141  276  283  282  279  287  282  127  144  138  130  133  134  150  133  117  129  129  122  124  123  132  115   90   99   92  
 13    7   27   28   25  131  148  140  147  129  150  142  149  143  146  147  146    3    5   15   11   10   14    0    8   14    2   13   12   65  129  130  125  125  130  269  276  275  273  280  274  139  156  149  142  145  146  161  145  119  133  132  125  127  127  134  118  100  109  102  
 11    3   20   22   17  136  154  145  151  134  155  148  154  148  151  152  151    5    5   12   19   15   14    8    0   21    9   18   17   71  134  136  130  130  136  277  284  282  280  288  282  141  158  152  144  147  148  164  147  126  140  139  132  134  134  142  125  104  112  105  
 27   21   41   42   38  118  134  127  133  115  136  129  135  130  132  133  133   16   16   21    6    8   16   14   21    0   13    5    6   65  128  129  124  125  128  260  268  266  264  271  266  128  146  138  132  135  134  150  135  105  119  118  111  113  113  121  104   87   98   90  
 15    9   28   29   25  129  146  139  145  127  148  141  147  142  144  145  144    4    5   14   10    9   12    2    9   13    0   11   10   66  130  131  126  126  131  269  276  275  273  280  274  137  154  147  140  144  144  159  143  118  131  131  123  126  125  133  117   98  107  100  
 26   19   38   40   34  119  135  128  134  116  137  130  136  131  133  134  133   14   14   16    9    4   11   13   18    5   11    0    2   69  133  133  128  129  132  265  272  271  268  276  271  127  144  137  130  134  133  149  133  108  121  121  113  115  115  123  107   87   97   89  
 25   18   37   39   33  119  136  128  134  117  138  131  137  131  134  135  134   13   13   14   10    2    9   12   17    6   10    2    0   70  134  134  130  130  133  267  274  273  270  277  272  127  144  137  130  134  134  149  133  109  122  122  115  117  116  125  108   88   97   90  
 63   68   80   74   83  153  165  162  171  151  167  161  171  166  163  168  171   68   70   80   60   70   77   65   71   65   66   69   70    0   64   65   60   60   65  217  223  221  220  229  219  180  199  187  186  190  185  200  189  120  137  135  125  129  132  130  124  134  148  140  
126  131  142  134  145  198  206  206  217  197  208  203  214  210  204  212  217  132  134  144  124  134  141  129  134  128  130  133  134   64    0    6    4    8   14  178  183  179  182  191  175  234  254  239  241  246  238  253  245  155  172  169  159  164  168  159  163  187  203  195  
128  132  144  136  147  194  202  202  213  193  204  200  210  206  200  208  213  133  135  145  124  135  142  130  136  129  131  133  134   65    6    0    8   14    7  172  177  174  176  185  169  232  251  237  239  244  235  250  242  151  168  164  155  160  164  154  159  185  201  193  
122  127  138  130  141  194  203  203  213  193  205  200  211  206  201  208  213  128  130  139  120  130  137  125  130  124  126  128  130   60    4    8    0    7   14  180  185  181  183  192  177  230  250  236  237  242  234  249  241  152  169  166  156  161  165  156  159  183  199  191  
121  126  136  128  140  199  208  207  218  198  210  205  216  211  206  213  218  127  130  139  120  130  137  125  130  125  126  129  130   60    8   14    7    0   21  186  191  188  190  199  183  234  253  239  240  245  238  253  244  157  175  171  162  167  170  162  165  187  202  194  
128  133  145  138  147  189  197  197  208  188  198  194  205  201  195  203  208  133  135  144  124  134  141  130  136  128  131  132  133   65   14    7   14   21    0  167  172  168  170  179  164  228  247  232  235  240  231  246  239  145  162  158  149  154  158  148  153  181  197  189  
274  275  292  288  293  244  238  246  257  245  238  240  250  249  237  248  257  272  274  281  259  268  276  269  277  260  269  265  267  217  178  172  180  186  167    0    8   11    4   13   20  298  314  294  307  312  296  306  311  199  206  201  198  202  207  187  209  262  277  272  
281  282  299  294  300  252  246  255  265  253  246  248  258  257  245  256  266  279  281  288  266  275  283  276  284  268  276  272  274  223  183  177  185  191  172    8    0    5    6   11   16  306  322  303  315  321  305  314  319  207  214  210  206  210  215  195  217  270  285  280  
279  280  297  292  298  253  248  256  266  254  248  249  260  259  247  258  267  278  280  287  265  274  282  275  282  266  275  271  273  221  179  174  181  188  168   11    5    0   10   17   10  307  323  304  316  322  306  315  320  208  215  211  207  211  216  196  218  270  285  280  
277  278  296  291  296  246  241  249  259  248  241  243  253  252  240  251  260  276  277  284  263  272  279  273  280  264  273  268  270  220  182  176  183  190  170    4    6   10    0    9   20  301  317  297  310  315  299  308  314  202  208  204  201  205  210  190  212  265  280  275  
285  286  304  299  304  250  244  253  263  252  244  246  256  255  243  254  263  283  285  292  270  279  287  280  288  271  280  276  277  229  191  185  192  199  179   13   11   17    9    0   27  305  321  301  314  319  303  312  318  206  212  208  205  209  214  194  217  270  284  280  
278  279  296  291  297  257  253  261  271  259  253  254  265  264  252  262  272  277  279  286  264  274  282  274  282  266  274  271  272  219  175  169  177  183  164   20   16   10   20   27    0  311  328  308  320  326  310  320  324  211  219  215  211  215  220  200  222  273  289  283  
152  144  157  162  150   54   65   54   46   53   65   61   54   52   65   55   45  139  137  131  134  128  127  139  141  128  137  127  127  180  234  232  230  234  228  298  306  307  301  305  311    0   20   13    9   15    8   22   13  100   92   96  100   96   91  111   90   47   32   40  
169  161  172  178  166   71   78   68   59   69   78   75   66   66   78   68   58  156  154  147  152  146  144  156  158  146  154  144  144  199  254  251  250  253  247  314  322  323  317  321  328   20    0   20   14   12   18   13   12  118  109  113  118  113  108  128  107   67   51   59  
162  154  168  173  161   51   58   48   39   50   58   55   47   46   58   48   38  149  148  142  144  139  138  149  152  138  147  137  137  187  239  237  236  239  232  294  303  304  297  301  308   13   20    0   18   22    5   13   21   99   89   94   98   94   89  108   89   53   40   48  
155  147  159  165  152   64   74   63   55   62   74   70   63   61   74   64   54  142  140  133  138  132  130  142  144  132  140  130  130  186  241  239  237  240  235  307  315  316  310  314  320    9   14   18    0    6   14   22    4  109  101  105  109  105  100  120   98   54   38   46  
158  150  161  167  154   69   79   68   60   67   79   75   68   66   79   69   59  145  143  136  141  135  133  145  147  135  144  134  134  190  246  244  242  245  240  312  321  322  315  319  326   15   12   22    6    0   18   23    2  115  107  111  115  111  106  125  104   59   43   51  
158  151  164  169  157   53   61   51   42   52   62   58   50   49   61   51   41  145  144  138  140  135  134  146  148  134  144  133  134  185  238  235  234  238  231  296  305  306  299  303  310    8   18    5   14   18    0   16   17  100   91   95  100   95   90  110   90   51   37   45  
174  166  179  184  172   63   68   59   49   62   68   66   56   56   69   58   48  161  159  153  156  151  150  161  164  150  159  149  149  200  253  250  249  253  246  306  314  315  308  312  320   22   13   13   22   23   16    0   22  112  101  105  111  106  101  120  101   66   53   61  
157  149  161  167  154   68   77   67   58   66   78   74   66   65   77   67   58  144  143  136  141  134  133  145  147  135  143  133  133  189  245  242  241  244  239  311  319  320  314  318  324   13   12   21    4    2   17   22    0  113  105  110  113  109  104  124  103   58   42   50  
131  126  146  147  142   49   53   55   66   49   54   51   62   59   51   60   67  121  121  122  108  111  117  119  126  105  118  108  109  120  155  151  152  157  145  199  207  208  202  206  211  100  118   99  109  115  100  112  113    0   18   15    6   10   13   17   11   64   78   73  
145  140  159  161  155   38   37   42   53   40   38   36   48   45   35   45   53  135  135  134  122  124  129  133  140  119  131  121  122  137  172  168  169  175  162  206  214  215  208  212  219   92  109   89  101  107   91  101  105   18    0    5   13    8    6   19   14   63   75   72  
144  139  159  160  155   42   41   47   58   44   42   41   52   50   40   50   58  134  134  134  122  124  129  132  139  118  131  121  122  135  169  164  166  171  158  201  210  211  204  208  215   96  113   94  105  111   95  105  110   15    5    0   10    6    7   15   15   66   78   75  
137  132  152  153  148   47   49   53   64   48   50   48   59   56   47   57   64  127  127  128  114  117  122  125  132  111  123  113  115  125  159  155  156  162  149  198  206  207  201  205  211  100  118   98  109  115  100  111  113    6   13   10    0    5   10   13   11   66   79   75  
139  134  154  155  150   43   44   48   59   44   45   43   54   52   42   52   60  129  129  129  116  119  124  127  134  113  126  115  117  129  164  160  161  167  154  202  210  211  205  209  215   96  113   94  105  111   95  106  109   10    8    6    5    0    5   15   10   63   76   73  
139  134  154  155  149   38   39   43   54   39   40   38   49   46   37   47   54  129  129  129  117  118  123  127  134  113  125  115  116  132  168  164  165  170  158  207  215  216  210  214  220   91  108   89  100  106   90  101  104   13    6    7   10    5    0   20    9   59   72   69  
146  142  162  162  158   57   55   61   72   58   56   55   66   64   54   64   73  137  137  138  123  127  132  134  142  121  133  123  125  130  159  154  156  162  148  187  195  196  190  194  200  111  128  108  120  125  110  120  124   17   19   15   13   15   20    0   24   78   91   88  
131  126  145  146  141   38   44   45   56   39   45   41   52   49   42   50   57  120  120  120  108  110  115  118  125  104  117  107  108  124  163  159  159  165  153  209  217  218  212  217  222   90  107   89   98  104   90  101  103   11   14   15   11   10    9   24    0   54   68   64  
113  106  122  126  116   38   56   45   48   34   57   50   52   47   54   51   48  100   99   95   93   89   90  100  104   87   98   87   88  134  187  185  183  187  181  262  270  270  265  270  273   47   67   53   54   59   51   66   58   64   63   66   66   63   59   78   54    0   16   10  
122  115  129  134  123   43   60   48   47   40   61   54   53   49   58   53   46  109  108  102  103   99   99  109  112   98  107   97   97  148  203  201  199  202  197  277  285  285  280  284  289   32   51   40   38   43   37   53   42   78   75   78   79   76   72   91   68   16    0    8  
115  107  122  127  116   44   61   50   51   40   63   55   56   51   60   55   50  102  101   95   96   91   92  102  105   90  100   89   90  140  195  193  191  194  189  272  280  280  275  280  283   40   59   48   46   51   45   61   50   73   72   75   75   73   69   88   64   10    8    0  

  0    0    0    0    0    0    0    0    0    0    1    0    0    0    0    0    0    0    0    0    0    0    0    0    0    0    0    0    0    0    0    0    0    0    0    0    0    0    3    0    0    0    0    0    0    1    0    0    0    0    0    0    0    0    0    0    0    0    0    0  
  0    0    0   14    0    0    0    0    0    0    0    0    0    0    0    0    0    0    0    0    0    1    0    0    0    0    0    0    0    3    0    0    0    0    0    0    0    1    0    0    0    0    0    0    0    0    0    0    0    0    0    0    0    0    0    0    0    0   72    0  
  0    0    0    3    0    0    0    0    0    0    0    0    0    0    0    0    0    0    0    0    0    0    0    1    0    0    0    0    0    1    0    0    0    0    0    0    0    0    0    0    0    0    0    0    1    0    0    0    0    0    0    0    0    0    0    0    0    0   58    0  
  0   86    1    0    0    0    0    0    0    0    0    0    0    0    0    0    0    0    0    0    0    1    0    1    0    0    0    0    0    4    0    0    0    0    0    0    0    0    0    0    0    0    0    0    1    0    0    0    0    0    0    0    0    0    0    0    0    0    1    0  
  0    0    0    0    0    0    0   98    0    2    0    0   45    0    0    0    0    0    0    0    1    0    0    0    0    0    0    0    0    0    0    0    0    0    0    0    0    0    0    0    0    0    0    0    0    0    0    0    0    0    0    0    0    0    0    0    0    0    0    0  
  0    0    0    0    0    0    0    0    0    0    0    0    5    0    0    0    0    0    0    0    0    0    0    0    0    0    0    0    0    0    0    0    0    0    0    0    0    0    0    0    0    0   34    0    0    0    0    0    0    0    1    0    0    0    0    0    0    0    0    0  
  0    0    0    0    0    0    0    0   23    0    0    0    0    0    0    0    1    0    0    1    0    0    0    0    0    0    0    0    0    0    0    0    0    0    0    0    0    0    0    0    0    0    0    0    0    0    0    0    0    0    0    0    0    0    0    0    0    0    0    0  
  0    0    0    0    1    0    0    0    0    0    0    0    0    0    0    0    0    0    0    0    0    0    0    0    0    0    0    0    0    0    0    0    0    0    0    0    0    0    0    0    0    0    0    0    0    0    0    0    0    0    0    0    0    0    0    0    0    0    0   18  
  0    0    0    0    0    0    1    0    0    0    0    0    0    0    0    0   13    0    0    0    0    0    0    0    0    0    0    0    0    0    0    0    0    0    0    0    0    0    0    0    0    0    0    0    0    0    0    0    0    0    0    0    0    0    0    0    0    0    0    0  
  0    0    0    0   36    0    0    0    0    0    0    0   38    0    0    0    0    0    0    0   40    0    0    0    0    0    0    0    0    0    0    0    0    0    0    0    0    0    0    0    0    0    0    0    0    0    0    0    0    0    0    3    0    0    0    0    0    0    0    0  
  1    0    0    0    0    0    0    0    0    0    0    0    0    0    0    0    0    0    0    0    0    0    0    0    0    0    0    0    0    0    0    0    0    0    0    0    0    0   58    0    0    0    0    0    0    0    0    0    0    0    0    0    0    0    0    0    0    0    0    0  
  0    0    0    0    0    0    0    0    0    0    0    0    0    0    0    0    0    0    0    0    0    0    0    0    0    0    0    0    0    0    0    0    0    1    0    0    0    0    0    0    0    0    0    0    0    0    0    0    0    0    0    0    0    0    0    0    0    0    0    0  
  0    0    0    0   92    1    0    0    0    1    0    0    0    0    0    0    0    0    0    0    1    0    0    0    0    0    0    0    0    0    0    0    0    0    0    0    0    0    0    0    0    0    0    0    0    0    0    0    0    0    0    0    0    0    0    0    0    0    0    0  
  0    0    0    0    0    0    0    0    0    0    0    0    0    0    0    0    0    0    0    0    0    0    0    0    0    0    0    0    1    0    0    0    0    0    0    0    0    0    0    0    0    0    0    0    0    0    0    0    0    0    0    0    0    0    1    0    0    0    0    0  
  0    0    0    0    0    0    0    0    0    0    0    0    0    0    0    0    1    0    0   44    0    0    0    0    0    0    0    0    0    0    0    0    0    0    0    0    0    0    0    0    0    0    0    0    0    0    0    0    0   73    0    0    0    0    0    0    0    0    0    0  
  0    0    0    0    0    0    0    0    0    0    0    0    0    0    0    0    0    0    0    0    0    0    0    0    0    0    0    0    0    0    0    0    0    0    0    0    0    0    0    0    0    0    0   19    0    0    0    0    0    0    0    0    0    0    0    0    0    0    0    0  
  0    0    0    0    0    0   36    0   13    0    0    0    0    0   15    0    0    0    0   91    0    0    0    0    0    0    0    0    0    0    0    0    0    0    0    0    0    0    0    0    0    0    0    0    0    0    0    0    0    1    0    0    0    0    0    0    0    0    0    0  
  0    0    0    0    0    0    0    0    0    0    0    0    0    0    0    0    0    0    0    0    0    0    0    0    0    0    0    0    0    0    0    0    0    0   10    1    0    0    0    0    0    0    0    0    0    0    0    0    0    0    0    0    0    0    0    0    0    1    0    0  
  0    0    0    0    0    0    0    0    0    0    0    0    0    0    0    0    0    0    0    0    0    0    0   80    0    0    0    0    0    0    0   47    0    0    0    0    0    0    0    0    0    0    0    0    0    0    0    0    0    0    0    0    0    0    0    0    0    0    0    0  
  0    0    0    0    0    0   10    0    0    0    0    0    0    0   28    0    4    0    0    0    0    0    0    0    0    0    0    0    0    0    0    0    0    0    0    0    0    0    0    0    0    0    0    0    0    0    0    0    0    0    0    0    0   22    0    0    0    0    0    0  
  0    0    0    0    1    0    0    0    0    1    0    0   26    0    0    0    0    0    0    0    0    0    0    0    0    0    0    0    0    0    0    0    0    0    0    0    0    0    0    0    0    0    0    0    0    0    0    0    0    0    0   88    0    0    0    0    0    0    0    0  
  0   61    0   13    0    0    0    0    0    0    0    0    0    0    0    0    0    0    0    0    0    0   40    0    0    0    0    0    0   65    0    0    0    0    0    0    0    4    0    0    0    0    0    0    0    0    0    0    1    0    0    0    0    0    0    0    0    0    1    0  
  0    0    0    0    0    0    0    0    0    0    0    0    0    0    0    0    0    0    0    0    0    5    0    0    0    0    0    0    0    0    0    0    0    0    0    0    1    0    0    0    0    0    0    0    0    0    0    0   92    0    0    0    0    0    0    0    0    0    0    0  
  0    0   41   15    0    0    0    0    0    0    0    0    0    0    0    0    0    0    2    0    0    0    0    0    0    0    0    0    0    0    0   21    0    0    0    0    0    0    0    0    0    0    0    0   17    0    0    0    0    0    0    0    0    0    0    0    0    0    0    0  
  0    0    0    0    0    0    0    0    0    0    0    0    0    0    0    0    0    0    0    0    0    0    0    0    0    1    0    0    0    0    0    0    0    0    0   55    0    0    0    0    0    0    0    0    0    0    0    0    0    0    0    0    0    0    0    0    0    0    0    0  
  0    0    0    0    0    0    0    0    0    0    0    0    0    0    0    0    0    0    0    0    0    0    0    0    1    0    1    0    0    0    0    0    0    0    0    0    0    0    0    0    0    0    0    0    0    0    0    0    0    0    0    0    0    0    0    0    0    0    0    0  
  0    0    0    0    0    0    0    0    0    0    0    0    0    0    0    0    0    0    0    0    0    0    0    0    0    1    0    0    0    0    0    0    0    0    0    0    0    0    0    0    0    0    0    0    0    0    0    0    0    0    0    0    0    0    0    7    0    0    0    0  
  0    0    0    0    0    0    0    0    0    0    0    0    0    0    0    0    0    0    0    0    0    0    0    0    0    0    0    0    0    0    0    0    0    0    0    0    0    0    0    0    0    0    0    0    0    0    1    0    0    0   86    0    0    0    0    0    0    0    0    0  
  0    0    0    0    0    0    0    0    0    0    0    0    0   85    0    0    0    0    0    0    0    0    0    0    0    0    0    0    0    0    0    0    0    0    0    0    0    0    0    0    0    0    0    0    0    0    0    0    0    0    0    0    0    0    1    0    0    0    0    0  
  0    2    1    1    0    0    0    0    0    0    0    0    0    0    0    0    0    0    0    0    0   15    0    0    0    0    0    0    0    0    0    0    0    0    0    0    0    0    0    0    0    0    0    0    1    0    0    0    0    0    0    0    0    0    0    0    0    0    1    0  
  0    0    0    0    0    0    0    0    0    0    0    0    0    0    0    0    0    0    0    0    0    0    0    0    0    0    0    0    0    0    0    0    0    0    0    0    0    0    0   60    0    0    0    0    0    0    0    1    0    0    0    0    0    0    0   38    0    0    0    0  
  0    0    0    0    0    0    0    0    0    0    0    0    0    0    0    0    0    0   24    0    0    0    0   95    0    0    0    0    0    0    0    0    0    0    0    0    0    0    0    0    0    0    0    0    0    0    0    0    0    0    0    0    0    0    0    0    0    0    0    0  
  0    0    0    0    0    0    0    0    0    0    0    0    0    0    0    0    0    0    0    0    0    0    0    0    0    0    0    0    0    0    0    0    0    0    0    0    0    0    0   39    0    0    0    0    0    0    0    0    0    0    0    0    1    0    0    0    0    0    0    0  
  0    0    0    0    0    0    0    0    0    0    0    1    0    0    0    0    0    0    0    0    0    0    0    0    0    0    0    0    0    0    0    0    0    0    0    0    0    0    0    0    0    0    0    0    0    0    0    0    0    0    0    0    0    0    0    0    1    0    0    0  
  0    0    0    0    0    0    0    0    0    0    0    0    0    0    0    0    0    5    0    0    0    0    0    0    0    0    0    0    0    0    0    0    0    0    0    0    0    0    0    0    0    0    0    0    0    0    0    0    0    0    0    0    0    0    0    0    0    0    0    0  
  0    0    0    0    0    0    0    0    0    0    0    0    0    0    0    0    0    2    0    0    0    0    0    0    1    0    0    0    0    0    0    0    0    0    0    0    0    0    0    0    0    0    0    0    0    0    0    0    0    0    0    0    0    0    0    0    0   59    0    0  
  0    0    0    0    0    0    0    0    0    0    0    0    0    0    0    0    0    0    0    0    0    0   16    0    0    0    0    0    0    0    0    0    0    0    0    0    0    0    0    0    0    0    0    0    0    0    0    0   12    0    0    0    0    0    0    0    0    0    0    0  
  0   81    0    0    0    0    0    0    0    0    0    0    0    0    0    0    0    0    0    0    0   16    0    0    0    0    0    0    0    0    0    0    0    0    0    0    0    0    0    0    0    0    0    0    0    0    0    0   11    0    0    0    0    0    0    0    0    0   13    0  
 45    0    0    0    0    0    0    0    0    0    1    0    0    0    0    0    0    0    0    0    0    0    0    0    0    0    0    0    0    0    0    0    0    0    0    0    0    0    0    0    0    0    0   27    0   56    0    0    0    0    0    0    0    0    0    0    0    0    0    0  
  0    0    0    0    0    0    0    0    0    0    0    0    0    0    0    0    0    0    0    0    0    0    0    0    0    0    0    0    0    0    9    0    2    0    0    0    0    0    0    0    0    0    0    0    0    0    0    1    0    0    0    0   71    0    0    0    0    0    0    0  
  0    0    0    0    0    0    0    0    0    0    0    0    0    0    0    0    0    0    0    0    0    0    0    0    0    0    0    0    0    0    0    0    0    0    0    0    0    0    0    0    0    0    0    0    0    0    0    3    0    0    0    4    0    0    0    1    0    0    0    0  
  0    0    0    0    0    0    0    0    0    0    0    0    0    0    0    0    0    0    0    0    0    0    0    0    0    0    0    0    0    0    0    0    0    0    0    0    0    0    0    0    0    0    0    0    0    0    0    0    0    0    0    0    0    0    0    0    1    0    0    0  
  0    0    0    0    0    1    0    0    0    0    0    0    0    0    0    0    0    0    0    0    0    0    0    0    0    0    0    0    0    0    0    0    0    0    0    0    0    0    0    0    0    0    0    0   67    0   53    0    0    0    0    0    0    0    0    0    0    0    0    0  
  0    0    0    0    0    0    0    0    0    0    0    0    0    0    0   24    0    0    0    0    0    0    0    0    0    0    0    0    0    0    0    0    0    0    0    0    0    0   49    0    0    0    0    0    0    1    0    0    0    0    0    0    0    0    0    0    0    0    0    0  
  0    0    1    1    0    0    0    0    0    0    0    0    0    0    0    0    0    0    0    0    0    0    0    1    0    0    0    0    0   30    0    0    0    0    0    0    0    0    0    0    0    0   92    0    0    0    0    0    0    0    0    0    0    0    0    0    0    0    0    0  
 15    0    0    0    0    0    0    0    0    0    0    0    0    0    0    0    0    0    0    0    0    0    0    0    0    0    0    0    0    0    0    0    0    0    0    0    0    0    1    0    0    0    0   11    0    0    0    0    0    0    0    0    0    0    0    0    0    0    0    0  
  0    0    0    0    0    0    0    0    0    0    0    0    0    0    0    0    0    0    0    0    0    0    0    0    0    0    0    1    0    0    0    0    0    0    0    0    0    0    0    0    0    0   37    0    0    0    0    0    0    0    1    0    0    0    0    0    0    0    0    0  
  0    0    0    0    0    0    0    0    0    0    0    0    0    0    0    0    0    0    0    0    0    0    0    0    0    0    0    0    0    0    1    0    0    0    0    0    0    0    0   22    3    0    0    0    0    0    0    0    0    0    0    0    0    0    0   82    0    0    0    0  
  0    0    0    0    0    0    0    0    0    0    0    0    0    0    0    0    0    0    0    0    0   34   19    0    0    0    0    0    0    0    0    0    0    0    0    0   28    1    0    0    0    0    0    0    0    0    0    0    0    0    0    0    0    0    0    0    0    0    0    0  
  0    0    0    0    0    0    0    0    0    0    0    0    0    0   15    0   31    0    0    0    0    0    0    0    0    0    0    0    0    0    0    0    0    0    0    0    0    0    0    0    0    0    0    0    0    0    0    0    0    0    0    0    0    0    0    0    0    2    0    0  
  0    0    0    0    0    5    0    0    0    0    0    0    0    0    0    0    0    0    0    0    0    0    0    0    0    0    0   17    0    0    0    0    0    0    0    0    0    0    0    0    0    0    0    0    0    0   79    0    0    0    0    0    0    0    0    0    0    0    0    0  
  0    0    0    0    0    0    0    0    0   45    0    0    0    0    0    0    0    0    0    0    1    0    0    0    0    0    0    0    0    0    0    0    0    0    0    0    0    0    0    0    7    0    0    0    0    0    0    0    0    0    0    0    0    0    0    0    0    0    0    0  
  0    0    0    0    0    0    0    0    0    0    0    0    0    0    0    0    0    0    0    0    0    0    0    0    0    0    0    0    0    0    0    0   15    0    0    0    0    0    0    1    0    0    0    0    0    0    0    0    0    0    0    0    0    0    0    0    0    0    0    0  
  0    0    0    0    0    0    0    0    0    0    0    0    0    0    0    0    0    0    0    1    0    0    0    0    0    0    0    0    0    0    0    0    0    0    0    0    0    0    0    0    0    0    0    0    0    0    0    0    0    0    0    0    0    0    0    0    0    0    0    0  
  0    0    0    0    0    0    0    0    0    0    0    0    0   93    0    0    0    0    0    0    0    0    0    0    0    0    0    0    1    0    0    0    0    0    0    0    0    0    0    0    0    0    0    0    0    0    0    0    0    0    0    0    0    0    0    0    0    0    0    0  
  0    0    0    0    0    0    0    0    0    0    0    0    0    0    0    0    0    0    0    0    0    0    0    0    0    0   26    0    0    0    1    0    0    0    0    0    0    0    0    0   83    0    0    0    0    0    0   41    0    0    0    0    0    0    0    0    0    0    0    0  
  0    0    0    0    0    0    0    0    0    0    0    0    0    0    0    0    0    0    0    0    0    0    0    0    0    0    0    0    0    0    0    0    0   27    0    0    0    0    0    0    0   43    0    0    0    0    0    0    0    0    0    0    0    0    0    0    0    0    0    0  
  0    0    0    0    0    0    0    0    0    0    0    0    0    0    0    0    0    1    0    0    0    0    0    0    0    0    0    0    0    0    0    0    0    0    0    1    0    0    0    0    0    0    0    0    0    0    0    0    0   17    0    0    0    0    0    0    0    0    0    0  
  0    1   13   84    0    0    0    0    0    0    0    0    0    0    0    0    0    0    0    0    0   27    0    0    0    0    0    0    0   26    0    0    0    0    0    0    0   14    0    0    0    0    0    0    0    0    0    0    0    0    0    0    0    0    0    0    0    0    0    0  
  0    0    0    0    0    0    0    8    0    0    0    0    0    0    0    0    0    0    0    0    0    0    0    0    0    0    0    0    0    0    0    0    0    0    0    0    0    0    0    0    0    0    0    0    0    0    0    0    0    0    0    0    0    0    0    0    0    0    0    0  
